p cnf 200 1110
-101 -79 0
-101 -12 0
-101 64 0
-101 70 0
-101 -40 0
-101 91 0
-101 -60 0
-101 -48 0
-101 -41 0
-101 65 0
101 79 12 -64 -70 40 -91 60 48 41 -65 0
-102 76 0
-102 71 0
-102 39 0
-102 -17 0
-102 2 0
-102 22 0
-102 7 0
-102 98 0
-102 -19 0
-102 -87 0
102 -76 -71 -39 17 -2 -22 -7 -98 19 87 0
-103 -81 0
-103 -6 0
-103 8 0
-103 27 0
-103 -20 0
-103 -38 0
-103 -78 0
-103 84 0
-103 -26 0
-103 86 0
103 81 6 -8 -27 20 38 78 -84 26 -86 0
-104 99 0
-104 40 0
-104 -83 0
-104 -11 0
-104 8 0
-104 49 0
-104 -15 0
-104 -62 0
-104 -23 0
-104 -37 0
104 -99 -40 83 11 -8 -49 15 62 23 37 0
-105 -98 0
-105 24 0
-105 17 0
-105 -65 0
-105 -10 0
-105 53 0
-105 87 0
-105 35 0
-105 88 0
-105 -83 0
105 98 -24 -17 65 10 -53 -87 -35 -88 83 0
-106 82 0
-106 5 0
-106 -88 0
-106 34 0
-106 -68 0
-106 -85 0
-106 -87 0
-106 55 0
-106 -41 0
-106 53 0
106 -82 -5 88 -34 68 85 87 -55 41 -53 0
-107 57 0
-107 63 0
-107 -29 0
-107 46 0
-107 -98 0
-107 10 0
-107 -30 0
-107 -99 0
-107 58 0
-107 90 0
107 -57 -63 29 -46 98 -10 30 99 -58 -90 0
-108 24 0
-108 -1 0
-108 51 0
-108 -71 0
-108 11 0
-108 5 0
-108 19 0
-108 46 0
-108 93 0
-108 47 0
108 -24 1 -51 71 -11 -5 -19 -46 -93 -47 0
-109 21 0
-109 -60 0
-109 74 0
-109 -42 0
-109 -71 0
-109 -66 0
-109 93 0
-109 15 0
-109 -2 0
-109 76 0
109 -21 60 -74 42 71 66 -93 -15 2 -76 0
-110 82 0
-110 -65 0
-110 -34 0
-110 12 0
-110 -96 0
-110 47 0
-110 25 0
-110 -10 0
-110 58 0
-110 -95 0
110 -82 65 34 -12 96 -47 -25 10 -58 95 0
101 102 103 104 105 106 107 108 109 110 0
-111 52 0
-111 47 0
-111 21 0
-111 15 0
-111 -12 0
-111 43 0
-111 18 0
-111 -87 0
-111 -57 0
-111 80 0
111 -52 -47 -21 -15 12 -43 -18 87 57 -80 0
-112 87 0
-112 -20 0
-112 -53 0
-112 -21 0
-112 -32 0
-112 49 0
-112 47 0
-112 34 0
-112 95 0
-112 -28 0
112 -87 20 53 21 32 -49 -47 -34 -95 28 0
-113 77 0
-113 -4 0
-113 -30 0
-113 -46 0
-113 81 0
-113 95 0
-113 -1 0
-113 -53 0
-113 -97 0
-113 -37 0
113 -77 4 30 46 -81 -95 1 53 97 37 0
-114 -35 0
-114 40 0
-114 77 0
-114 -46 0
-114 -71 0
-114 39 0
-114 29 0
-114 79 0
-114 -36 0
-114 -78 0
114 35 -40 -77 46 71 -39 -29 -79 36 78 0
-115 -58 0
-115 21 0
-115 99 0
-115 52 0
-115 31 0
-115 -53 0
-115 89 0
-115 -42 0
-115 38 0
-115 59 0
115 58 -21 -99 -52 -31 53 -89 42 -38 -59 0
-116 -56 0
-116 31 0
-116 82 0
-116 25 0
-116 -5 0
-116 -26 0
-116 -59 0
-116 74 0
-116 60 0
-116 13 0
116 56 -31 -82 -25 5 26 59 -74 -60 -13 0
-117 -51 0
-117 -41 0
-117 77 0
-117 -10 0
-117 21 0
-117 -97 0
-117 -78 0
-117 94 0
-117 -74 0
-117 -1 0
117 51 41 -77 10 -21 97 78 -94 74 1 0
-118 -68 0
-118 95 0
-118 -42 0
-118 15 0
-118 -85 0
-118 -48 0
-118 1 0
-118 -38 0
-118 -28 0
-118 93 0
118 68 -95 42 -15 85 48 -1 38 28 -93 0
-119 60 0
-119 33 0
-119 -98 0
-119 37 0
-119 79 0
-119 -99 0
-119 41 0
-119 1 0
-119 65 0
-119 -66 0
119 -60 -33 98 -37 -79 99 -41 -1 -65 66 0
-120 57 0
-120 96 0
-120 -45 0
-120 -6 0
-120 8 0
-120 -71 0
-120 -13 0
-120 81 0
-120 -19 0
-120 39 0
120 -57 -96 45 6 -8 71 13 -81 19 -39 0
111 112 113 114 115 116 117 118 119 120 0
-121 78 0
-121 8 0
-121 -40 0
-121 98 0
-121 -67 0
-121 61 0
-121 -15 0
-121 -85 0
-121 83 0
-121 -91 0
121 -78 -8 40 -98 67 -61 15 85 -83 91 0
-122 9 0
-122 -52 0
-122 -65 0
-122 4 0
-122 60 0
-122 32 0
-122 -6 0
-122 67 0
-122 -37 0
-122 62 0
122 -9 52 65 -4 -60 -32 6 -67 37 -62 0
-123 -49 0
-123 -11 0
-123 98 0
-123 73 0
-123 -21 0
-123 -51 0
-123 68 0
-123 22 0
-123 48 0
-123 17 0
123 49 11 -98 -73 21 51 -68 -22 -48 -17 0
-124 12 0
-124 -88 0
-124 -23 0
-124 -69 0
-124 38 0
-124 -56 0
-124 -74 0
-124 80 0
-124 10 0
-124 -15 0
124 -12 88 23 69 -38 56 74 -80 -10 15 0
-125 10 0
-125 -31 0
-125 -40 0
-125 -76 0
-125 58 0
-125 44 0
-125 -41 0
-125 -5 0
-125 1 0
-125 90 0
125 -10 31 40 76 -58 -44 41 5 -1 -90 0
-126 -59 0
-126 -7 0
-126 -48 0
-126 50 0
-126 -11 0
-126 4 0
-126 -46 0
-126 -73 0
-126 13 0
-126 82 0
126 59 7 48 -50 11 -4 46 73 -13 -82 0
-127 57 0
-127 1 0
-127 -81 0
-127 -51 0
-127 44 0
-127 18 0
-127 15 0
-127 8 0
-127 -36 0
-127 100 0
127 -57 -1 81 51 -44 -18 -15 -8 36 -100 0
-128 -55 0
-128 28 0
-128 57 0
-128 61 0
-128 44 0
-128 -68 0
-128 -52 0
-128 -81 0
-128 -72 0
-128 -78 0
128 55 -28 -57 -61 -44 68 52 81 72 78 0
-129 -72 0
-129 21 0
-129 18 0
-129 -67 0
-129 -34 0
-129 -26 0
-129 -33 0
-129 30 0
-129 15 0
-129 49 0
129 72 -21 -18 67 34 26 33 -30 -15 -49 0
-130 97 0
-130 -37 0
-130 -2 0
-130 95 0
-130 13 0
-130 -93 0
-130 72 0
-130 15 0
-130 -8 0
-130 -91 0
130 -97 37 2 -95 -13 93 -72 -15 8 91 0
121 122 123 124 125 126 127 128 129 130 0
-131 87 0
-131 59 0
-131 42 0
-131 56 0
-131 -78 0
-131 30 0
-131 -97 0
-131 -84 0
-131 55 0
-131 53 0
131 -87 -59 -42 -56 78 -30 97 84 -55 -53 0
-132 -48 0
-132 -96 0
-132 -27 0
-132 -13 0
-132 -47 0
-132 -64 0
-132 -60 0
-132 33 0
-132 53 0
-132 -20 0
132 48 96 27 13 47 64 60 -33 -53 20 0
-133 30 0
-133 -19 0
-133 -74 0
-133 23 0
-133 58 0
-133 88 0
-133 -72 0
-133 -94 0
-133 -87 0
-133 85 0
133 -30 19 74 -23 -58 -88 72 94 87 -85 0
-134 -47 0
-134 -95 0
-134 -63 0
-134 2 0
-134 16 0
-134 -85 0
-134 -35 0
-134 -44 0
-134 -7 0
-134 -52 0
134 47 95 63 -2 -16 85 35 44 7 52 0
-135 92 0
-135 52 0
-135 -46 0
-135 15 0
-135 -55 0
-135 83 0
-135 -2 0
-135 -20 0
-135 70 0
-135 14 0
135 -92 -52 46 -15 55 -83 2 20 -70 -14 0
-136 -33 0
-136 -35 0
-136 67 0
-136 -81 0
-136 -68 0
-136 -24 0
-136 77 0
-136 49 0
-136 41 0
-136 -60 0
136 33 35 -67 81 68 24 -77 -49 -41 60 0
-137 27 0
-137 -28 0
-137 92 0
-137 -65 0
-137 -98 0
-137 13 0
-137 -70 0
-137 56 0
-137 76 0
-137 -82 0
137 -27 28 -92 65 98 -13 70 -56 -76 82 0
-138 -18 0
-138 35 0
-138 -97 0
-138 40 0
-138 5 0
-138 -13 0
-138 6 0
-138 87 0
-138 -7 0
-138 55 0
138 18 -35 97 -40 -5 13 -6 -87 7 -55 0
-139 43 0
-139 20 0
-139 -63 0
-139 2 0
-139 7 0
-139 -36 0
-139 -9 0
-139 61 0
-139 12 0
-139 -83 0
139 -43 -20 63 -2 -7 36 9 -61 -12 83 0
-140 94 0
-140 -33 0
-140 -14 0
-140 76 0
-140 74 0
-140 -17 0
-140 -68 0
-140 -5 0
-140 23 0
-140 -85 0
140 -94 33 14 -76 -74 17 68 5 -23 85 0
131 132 133 134 135 136 137 138 139 140 0
-141 73 0
-141 55 0
-141 56 0
-141 10 0
-141 91 0
-141 -8 0
-141 -37 0
-141 -99 0
-141 82 0
-141 96 0
141 -73 -55 -56 -10 -91 8 37 99 -82 -96 0
-142 4 0
-142 -12 0
-142 -43 0
-142 -87 0
-142 -42 0
-142 49 0
-142 -62 0
-142 6 0
-142 -70 0
-142 -74 0
142 -4 12 43 87 42 -49 62 -6 70 74 0
-143 84 0
-143 98 0
-143 59 0
-143 -30 0
-143 76 0
-143 40 0
-143 19 0
-143 -50 0
-143 52 0
-143 -48 0
143 -84 -98 -59 30 -76 -40 -19 50 -52 48 0
-144 19 0
-144 13 0
-144 -66 0
-144 8 0
-144 -6 0
-144 34 0
-144 22 0
-144 -31 0
-144 64 0
-144 67 0
144 -19 -13 66 -8 6 -34 -22 31 -64 -67 0
-145 52 0
-145 -32 0
-145 -14 0
-145 -22 0
-145 20 0
-145 19 0
-145 74 0
-145 -24 0
-145 -51 0
-145 4 0
145 -52 32 14 22 -20 -19 -74 24 51 -4 0
-146 41 0
-146 76 0
-146 -80 0
-146 -44 0
-146 -24 0
-146 -38 0
-146 10 0
-146 -81 0
-146 -2 0
-146 -77 0
146 -41 -76 80 44 24 38 -10 81 2 77 0
-147 90 0
-147 30 0
-147 78 0
-147 -67 0
-147 -87 0
-147 2 0
-147 70 0
-147 85 0
-147 44 0
-147 15 0
147 -90 -30 -78 67 87 -2 -70 -85 -44 -15 0
-148 4 0
-148 38 0
-148 26 0
-148 61 0
-148 -94 0
-148 -87 0
-148 -60 0
-148 -19 0
-148 -79 0
-148 -21 0
148 -4 -38 -26 -61 94 87 60 19 79 21 0
-149 92 0
-149 -34 0
-149 22 0
-149 -68 0
-149 80 0
-149 42 0
-149 100 0
-149 -59 0
-149 19 0
-149 -90 0
149 -92 34 -22 68 -80 -42 -100 59 -19 90 0
-150 18 0
-150 27 0
-150 -40 0
-150 8 0
-150 -57 0
-150 -63 0
-150 -60 0
-150 48 0
-150 36 0
-150 -43 0
150 -18 -27 40 -8 57 63 60 -48 -36 43 0
141 142 143 144 145 146 147 148 149 150 0
-151 49 0
-151 94 0
-151 -32 0
-151 -12 0
-151 -4 0
-151 62 0
-151 -70 0
-151 78 0
-151 79 0
-151 84 0
151 -49 -94 32 12 4 -62 70 -78 -79 -84 0
-152 12 0
-152 16 0
-152 1 0
-152 -11 0
-152 43 0
-152 -80 0
-152 -7 0
-152 -46 0
-152 81 0
-152 84 0
152 -12 -16 -1 11 -43 80 7 46 -81 -84 0
-153 21 0
-153 -32 0
-153 6 0
-153 9 0
-153 -97 0
-153 75 0
-153 85 0
-153 17 0
-153 -25 0
-153 -59 0
153 -21 32 -6 -9 97 -75 -85 -17 25 59 0
-154 53 0
-154 -66 0
-154 95 0
-154 -70 0
-154 -74 0
-154 23 0
-154 6 0
-154 15 0
-154 -27 0
-154 51 0
154 -53 66 -95 70 74 -23 -6 -15 27 -51 0
-155 51 0
-155 73 0
-155 68 0
-155 27 0
-155 42 0
-155 86 0
-155 -91 0
-155 90 0
-155 32 0
-155 -58 0
155 -51 -73 -68 -27 -42 -86 91 -90 -32 58 0
-156 -16 0
-156 44 0
-156 13 0
-156 -79 0
-156 -54 0
-156 -77 0
-156 -37 0
-156 84 0
-156 -45 0
-156 57 0
156 16 -44 -13 79 54 77 37 -84 45 -57 0
-157 68 0
-157 -13 0
-157 88 0
-157 -55 0
-157 -52 0
-157 -58 0
-157 -50 0
-157 -84 0
-157 7 0
-157 97 0
157 -68 13 -88 55 52 58 50 84 -7 -97 0
-158 35 0
-158 -23 0
-158 -99 0
-158 -22 0
-158 -37 0
-158 12 0
-158 -15 0
-158 -50 0
-158 93 0
-158 -7 0
158 -35 23 99 22 37 -12 15 50 -93 7 0
-159 -49 0
-159 -63 0
-159 -29 0
-159 -51 0
-159 64 0
-159 -76 0
-159 21 0
-159 -37 0
-159 85 0
-159 -86 0
159 49 63 29 51 -64 76 -21 37 -85 86 0
-160 -71 0
-160 31 0
-160 -15 0
-160 -95 0
-160 -93 0
-160 75 0
-160 97 0
-160 44 0
-160 83 0
-160 -36 0
160 71 -31 15 95 93 -75 -97 -44 -83 36 0
151 152 153 154 155 156 157 158 159 160 0
-161 53 0
-161 6 0
-161 21 0
-161 35 0
-161 -74 0
-161 77 0
-161 1 0
-161 29 0
-161 -20 0
-161 -45 0
161 -53 -6 -21 -35 74 -77 -1 -29 20 45 0
-162 -36 0
-162 -43 0
-162 -20 0
-162 97 0
-162 -79 0
-162 86 0
-162 -72 0
-162 -37 0
-162 95 0
-162 74 0
162 36 43 20 -97 79 -86 72 37 -95 -74 0
-163 -40 0
-163 -70 0
-163 69 0
-163 -95 0
-163 41 0
-163 49 0
-163 -76 0
-163 -27 0
-163 2 0
-163 -3 0
163 40 70 -69 95 -41 -49 76 27 -2 3 0
-164 43 0
-164 57 0
-164 -48 0
-164 -63 0
-164 -46 0
-164 70 0
-164 59 0
-164 -80 0
-164 58 0
-164 55 0
164 -43 -57 48 63 46 -70 -59 80 -58 -55 0
-165 -5 0
-165 -34 0
-165 54 0
-165 -71 0
-165 -67 0
-165 -30 0
-165 -50 0
-165 -76 0
-165 45 0
-165 -100 0
165 5 34 -54 71 67 30 50 76 -45 100 0
-166 -99 0
-166 7 0
-166 13 0
-166 70 0
-166 72 0
-166 11 0
-166 28 0
-166 -56 0
-166 -60 0
-166 -91 0
166 99 -7 -13 -70 -72 -11 -28 56 60 91 0
-167 85 0
-167 -75 0
-167 87 0
-167 84 0
-167 -55 0
-167 -52 0
-167 -80 0
-167 -14 0
-167 -16 0
-167 -68 0
167 -85 75 -87 -84 55 52 80 14 16 68 0
-168 -46 0
-168 48 0
-168 14 0
-168 -59 0
-168 -80 0
-168 -95 0
-168 -35 0
-168 -39 0
-168 67 0
-168 -57 0
168 46 -48 -14 59 80 95 35 39 -67 57 0
-169 -98 0
-169 -32 0
-169 72 0
-169 47 0
-169 81 0
-169 87 0
-169 64 0
-169 93 0
-169 -39 0
-169 84 0
169 98 32 -72 -47 -81 -87 -64 -93 39 -84 0
-170 -38 0
-170 -42 0
-170 -76 0
-170 -25 0
-170 -5 0
-170 -98 0
-170 70 0
-170 -54 0
-170 68 0
-170 82 0
170 38 42 76 25 5 98 -70 54 -68 -82 0
161 162 163 164 165 166 167 168 169 170 0
-171 76 0
-171 -74 0
-171 19 0
-171 -47 0
-171 -77 0
-171 -99 0
-171 60 0
-171 13 0
-171 56 0
-171 -53 0
171 -76 74 -19 47 77 99 -60 -13 -56 53 0
-172 46 0
-172 10 0
-172 -76 0
-172 28 0
-172 18 0
-172 57 0
-172 90 0
-172 -43 0
-172 64 0
-172 -63 0
172 -46 -10 76 -28 -18 -57 -90 43 -64 63 0
-173 -49 0
-173 76 0
-173 94 0
-173 -39 0
-173 20 0
-173 -35 0
-173 12 0
-173 37 0
-173 -21 0
-173 -70 0
173 49 -76 -94 39 -20 35 -12 -37 21 70 0
-174 81 0
-174 -84 0
-174 53 0
-174 -79 0
-174 -97 0
-174 82 0
-174 -89 0
-174 -99 0
-174 -50 0
-174 56 0
174 -81 84 -53 79 97 -82 89 99 50 -56 0
-175 -36 0
-175 27 0
-175 68 0
-175 -53 0
-175 -83 0
-175 63 0
-175 8 0
-175 -73 0
-175 39 0
-175 -12 0
175 36 -27 -68 53 83 -63 -8 73 -39 12 0
-176 -30 0
-176 56 0
-176 -7 0
-176 -47 0
-176 40 0
-176 -70 0
-176 -76 0
-176 6 0
-176 -51 0
-176 89 0
176 30 -56 7 47 -40 70 76 -6 51 -89 0
-177 -50 0
-177 -87 0
-177 61 0
-177 72 0
-177 30 0
-177 29 0
-177 99 0
-177 -92 0
-177 -76 0
-177 36 0
177 50 87 -61 -72 -30 -29 -99 92 76 -36 0
-178 -22 0
-178 -95 0
-178 -76 0
-178 46 0
-178 17 0
-178 -15 0
-178 -74 0
-178 -82 0
-178 2 0
-178 28 0
178 22 95 76 -46 -17 15 74 82 -2 -28 0
-179 -48 0
-179 87 0
-179 -97 0
-179 -51 0
-179 32 0
-179 95 0
-179 43 0
-179 -75 0
-179 80 0
-179 69 0
179 48 -87 97 51 -32 -95 -43 75 -80 -69 0
-180 48 0
-180 24 0
-180 -15 0
-180 37 0
-180 -75 0
-180 -46 0
-180 -83 0
-180 -60 0
-180 -76 0
-180 33 0
180 -48 -24 15 -37 75 46 83 60 76 -33 0
171 172 173 174 175 176 177 178 179 180 0
-181 6 0
-181 4 0
-181 -40 0
-181 23 0
-181 -71 0
-181 54 0
-181 -36 0
-181 -3 0
-181 60 0
-181 -38 0
181 -6 -4 40 -23 71 -54 36 3 -60 38 0
-182 -5 0
-182 12 0
-182 -41 0
-182 -28 0
-182 86 0
-182 75 0
-182 -62 0
-182 -58 0
-182 -99 0
-182 81 0
182 5 -12 41 28 -86 -75 62 58 99 -81 0
-183 43 0
-183 62 0
-183 -22 0
-183 -28 0
-183 93 0
-183 56 0
-183 80 0
-183 79 0
-183 67 0
-183 82 0
183 -43 -62 22 28 -93 -56 -80 -79 -67 -82 0
-184 -91 0
-184 -39 0
-184 -3 0
-184 -76 0
-184 -18 0
-184 94 0
-184 -97 0
-184 -43 0
-184 -34 0
-184 33 0
184 91 39 3 76 18 -94 97 43 34 -33 0
-185 57 0
-185 -60 0
-185 65 0
-185 -87 0
-185 -58 0
-185 84 0
-185 90 0
-185 -29 0
-185 -71 0
-185 2 0
185 -57 60 -65 87 58 -84 -90 29 71 -2 0
-186 98 0
-186 33 0
-186 22 0
-186 -54 0
-186 59 0
-186 37 0
-186 41 0
-186 -25 0
-186 -52 0
-186 -63 0
186 -98 -33 -22 54 -59 -37 -41 25 52 63 0
-187 3 0
-187 92 0
-187 -86 0
-187 -56 0
-187 -61 0
-187 96 0
-187 78 0
-187 19 0
-187 -98 0
-187 -73 0
187 -3 -92 86 56 61 -96 -78 -19 98 73 0
-188 57 0
-188 -25 0
-188 -17 0
-188 33 0
-188 98 0
-188 -84 0
-188 64 0
-188 -12 0
-188 20 0
-188 -65 0
188 -57 25 17 -33 -98 84 -64 12 -20 65 0
-189 -36 0
-189 -79 0
-189 -26 0
-189 88 0
-189 21 0
-189 -6 0
-189 49 0
-189 52 0
-189 -89 0
-189 -91 0
189 36 79 26 -88 -21 6 -49 -52 89 91 0
-190 10 0
-190 -41 0
-190 -54 0
-190 58 0
-190 14 0
-190 16 0
-190 -13 0
-190 37 0
-190 71 0
-190 -67 0
190 -10 41 54 -58 -14 -16 13 -37 -71 67 0
181 182 183 184 185 186 187 188 189 190 0
-191 20 0
-191 28 0
-191 -13 0
-191 30 0
-191 -78 0
-191 -72 0
-191 -85 0
-191 -53 0
-191 12 0
-191 -22 0
191 -20 -28 13 -30 78 72 85 53 -12 22 0
-192 -31 0
-192 -44 0
-192 96 0
-192 86 0
-192 -35 0
-192 37 0
-192 -79 0
-192 -29 0
-192 92 0
-192 33 0
192 31 44 -96 -86 35 -37 79 29 -92 -33 0
-193 98 0
-193 8 0
-193 40 0
-193 -20 0
-193 13 0
-193 -80 0
-193 -47 0
-193 53 0
-193 79 0
-193 17 0
193 -98 -8 -40 20 -13 80 47 -53 -79 -17 0
-194 29 0
-194 -77 0
-194 -99 0
-194 -13 0
-194 -25 0
-194 98 0
-194 6 0
-194 -71 0
-194 -74 0
-194 -21 0
194 -29 77 99 13 25 -98 -6 71 74 21 0
-195 -56 0
-195 14 0
-195 83 0
-195 41 0
-195 -66 0
-195 -25 0
-195 21 0
-195 40 0
-195 54 0
-195 86 0
195 56 -14 -83 -41 66 25 -21 -40 -54 -86 0
-196 93 0
-196 -11 0
-196 4 0
-196 -17 0
-196 8 0
-196 -39 0
-196 -49 0
-196 -44 0
-196 72 0
-196 80 0
196 -93 11 -4 17 -8 39 49 44 -72 -80 0
-197 -11 0
-197 -71 0
-197 -13 0
-197 18 0
-197 -73 0
-197 -82 0
-197 79 0
-197 84 0
-197 6 0
-197 -19 0
197 11 71 13 -18 73 82 -79 -84 -6 19 0
-198 -52 0
-198 -35 0
-198 3 0
-198 87 0
-198 -60 0
-198 -50 0
-198 8 0
-198 -33 0
-198 15 0
-198 -81 0
198 52 35 -3 -87 60 50 -8 33 -15 81 0
-199 73 0
-199 16 0
-199 -79 0
-199 11 0
-199 -70 0
-199 -35 0
-199 -41 0
-199 -25 0
-199 72 0
-199 -97 0
199 -73 -16 79 -11 70 35 41 25 -72 97 0
-200 86 0
-200 -74 0
-200 -95 0
-200 -41 0
-200 11 0
-200 35 0
-200 -60 0
-200 -36 0
-200 78 0
-200 10 0
200 -86 74 95 41 -11 -35 60 36 -78 -10 0
191 192 193 194 195 196 197 198 199 200 0
